tp1/exo2/avec_modifs.lp
\ENCODING=ISO-8859-1
\Problem name: exo2tp1.lp

Maximize
 obj: 139 x + 88 y + 133 z + 137 t + 165 r
Subject To
 c1:  1.4 x + 1.8 y + 1.5 z + 1.4 t + 1.4 r <= 420
 c2:  9.8 x + 2.4 y + 1.4 z + 1.4 t + 1.4 r <= 415
 c3:  4 x + 0.4 y + 1.4 z + 1.4 t + 1.4 r <= 355
 c4:  2.8 x + 0.6 y + 1.3 z + 1.4 t + 1.5 r + 5.5 s1 <= 345
 c5:  2.2 x + 0.4 y + 1.3 z + 1.5 t + 1.2 r + 5.5 s2 <= 160
 c6:  2.2 x + 0.4 y + 1.3 z + 1.3 t + 1.2 r + 5.5 s3 <= 95
 c7:  2.2 x + 0.6 y + 1.3 z + 1.3 t + 1.2 r + 5.5 s4 <= 370
 c8:  2.6 x + 5.8 y + 1.5 z + 1.5 t + 1.2 r + 5.5 s5 <= 410
 c9:  0.6 x + 1.3 z + 4 Oy + 5.5 s6 <= 272
 c10: 0.6 x + 1.2 y + 1.3 z + 1.3 t + 2.6 r <= 235
 c11: 0.6 x + 1.8 y + 1.2 z + 1.2 t + 1.2 r <= 310
 c12: 0.6 x + 1.8 y + 1.5 z + 1.4 t + 1.4 r <= 420
 c13: 16 x + 12 t + 35 r + 50 s1 + 50 s2 <= 5200
 c14: 20 x + 36 t + 50 r + 50 s3 + 50 s4 <= 5200
 c15: 16 x + 12 t + 35 r + 50 s5 + 50 s6 <= 3600
 c16: s1 + s2 + s3 + s4 + s5 + s6 - st  = 0
 c17: 0.1 y + 0.9 z + 0.8 t + 2.3 r - st <= 0
End
