tp1/exo2/avec_modifs.sol
<?xml version = "1.0" encoding="UTF-8" standalone="yes"?>
<CPLEXSolution version="1.2">
 <header
   problemName="exo2tp1.lp"
   objectiveValue="14726.7820310812"
   solutionTypeValue="1"
   solutionTypeString="basic"
   solutionStatusValue="1"
   solutionStatusString="optimal"
   solutionMethodString="dual"
   primalFeasible="1"
   dualFeasible="1"
   simplexIterations="17"
   writeLevel="1"/>
 <quality
   epRHS="1e-06"
   epOpt="1e-06"
   maxPrimalInfeas="0"
   maxDualInfeas="0"
   maxPrimalResidual="4.83169060316868e-13"
   maxDualResidual="5.77315972805081e-15"
   maxX="133.629921603334"
   maxPi="67.4197852953757"
   maxSlack="682.965389250928"
   maxRedCost="351.413622044012"
   kappa="19.3725201843459"/>
 <linearConstraints>
  <constraint name="c1" index="0" status="BS" slack="232.147820304027" dual="-0"/>
  <constraint name="c2" index="1" status="BS" slack="192.493435623383" dual="-0"/>
  <constraint name="c3" index="2" status="BS" slack="248.725526525658" dual="-0"/>
  <constraint name="c4" index="3" status="LL" slack="0" dual="3.57147950258433"/>
  <constraint name="c5" index="4" status="LL" slack="0" dual="3.57147950258433"/>
  <constraint name="c6" index="5" status="LL" slack="0" dual="67.4197852953757"/>
  <constraint name="c7" index="6" status="LL" slack="0" dual="3.52639946919171"/>
  <constraint name="c8" index="7" status="LL" slack="0" dual="9.20352637436706"/>
  <constraint name="c9" index="8" status="BS" slack="83.8448609664253" dual="-0"/>
  <constraint name="c10" index="9" status="BS" slack="18.6925902921921" dual="-0"/>
  <constraint name="c11" index="10" status="BS" slack="134.224213650335" dual="-0"/>
  <constraint name="c12" index="11" status="BS" slack="232.147820304027" dual="-0"/>
  <constraint name="c13" index="12" status="BS" slack="682.965389250928" dual="-0"/>
  <constraint name="c14" index="13" status="LL" slack="0" dual="0.00495880367318791"/>
  <constraint name="c15" index="14" status="LL" slack="0" dual="0.392862745284277"/>
  <constraint name="c16" index="15" status="LL" slack="0" dual="-19.6431372642138"/>
  <constraint name="c17" index="16" status="LL" slack="0" dual="19.6431372642138"/>
 </linearConstraints>
 <variables>
  <variable name="x" index="0" status="LL" value="0" reducedCost="-65.2531525663366"/>
  <variable name="y" index="1" status="BS" value="58.1160454511379" reducedCost="-0"/>
  <variable name="z" index="2" status="BS" value="2.1524259003778" reducedCost="-0"/>
  <variable name="t" index="3" status="BS" value="3.71434691890006" reducedCost="-0"/>
  <variable name="r" index="4" status="BS" value="53.4389809620697" reducedCost="-0"/>
  <variable name="s1" index="5" status="BS" value="40.3588476235021" reducedCost="-0"/>
  <variable name="s2" index="6" status="BS" value="11.6831146574945" reducedCost="-0"/>
  <variable name="s3" index="7" status="LL" value="0" reducedCost="-351.413622044012"/>
  <variable name="s4" index="8" status="BS" value="47.8866892563223" reducedCost="-0"/>
  <variable name="s5" index="9" status="LL" value="0" reducedCost="-50.6193950590188"/>
  <variable name="Oy" index="10" status="LL" value="0" reducedCost="-0"/>
  <variable name="s6" index="11" status="BS" value="33.7012700660152" reducedCost="-0"/>
  <variable name="st" index="12" status="BS" value="133.629921603334" reducedCost="-0"/>
 </variables>
</CPLEXSolution>
